1000
750 750
1 600 225
2 600 687
3 600 299
4 599 871
5 599 221
6 598 810
7 598 955
8 598 925
9 597 588
10 597 345
11 596 598
12 596 119
13 596 864
14 596 143
15 596 329
16 596 460
17 595 528
18 595 567
19 595 313
20 594 464
21 594 609
22 593 130
23 593 820
24 593 208
25 592 417
26 591 830
27 591 663
28 591 450
29 590 221
30 590 512
31 590 775
32 590 188
33 589 630
34 589 59
35 588 304
36 588 996
37 587 957
38 587 703
39 586 398
40 586 884
41 586 428
42 585 402
43 585 502
44 584 2
45 583 306
46 583 476
47 583 532
48 583 956
49 581 572
50 581 977
51 580 421
52 579 92
53 579 213
54 579 430
55 579 963
56 578 481
57 578 417
58 578 289
59 577 152
60 576 632
61 576 176
62 576 420
63 574 311
64 573 760
65 573 4
66 573 885
67 571 871
68 571 652
69 570 743
70 570 556
71 570 716
72 569 763
73 569 221
74 569 990
75 568 383
76 567 907
77 567 253
78 566 490
79 566 50
80 566 6
81 565 558
82 564 153
83 564 801
84 564 230
85 563 163
86 563 627
87 562 83
88 562 13
89 562 36
90 562 342
91 561 456
92 561 400
93 561 835
94 560 101
95 559 669
96 559 55
97 558 331
98 558 707
99 557 114
100 557 395
101 557 667
102 557 208
103 556 462
104 556 996
105 556 269
106 555 312
107 554 410
108 554 270
109 554 349
110 553 874
111 552 849
112 551 762
113 551 641
114 550 306
115 550 366
116 550 93
117 550 324
118 549 403
119 549 157
120 548 270
121 548 728
122 548 602
123 548 444
124 547 513
125 547 340
126 547 145
127 547 901
128 546 735
129 546 310
130 546 337
131 545 767
132 545 370
133 545 20
134 545 298
135 544 628
136 544 293
137 543 272
138 542 808
139 542 685
140 541 418
141 541 423
142 540 132
143 540 679
144 540 831
145 539 669
146 539 845
147 538 274
148 537 439
149 537 402
150 536 513
151 536 176
152 536 926
153 536 324
154 535 5
155 535 671
156 535 754
157 535 163
158 534 407
159 534 887
160 533 435
161 533 982
162 533 650
163 532 127
164 532 293
165 531 446
166 531 232
167 530 946
168 530 712
169 528 571
170 528 853
171 528 615
172 527 31
173 527 953
174 527 919
175 527 178
176 527 227
177 527 242
178 526 872
179 526 914
180 526 31
181 525 432
182 525 256
183 525 96
184 525 693
185 525 716
186 525 473
187 525 428
188 525 892
189 524 869
190 523 904
191 523 926
192 522 550
193 522 295
194 522 698
195 522 48
196 521 52
197 521 941
198 520 785
199 520 898
200 519 404
201 519 845
202 518 126
203 518 449
204 517 952
205 515 227
206 515 883
207 515 683
208 514 313
209 514 362
210 514 806
211 513 43
212 513 794
213 513 866
214 513 278
215 512 409
216 512 937
217 512 640
218 512 422
219 511 960
220 510 567
221 510 388
222 509 231
223 509 648
224 508 122
225 508 525
226 508 56
227 508 484
228 508 491
229 507 111
230 506 700
231 506 243
232 506 264
233 505 532
234 505 714
235 504 917
236 504 320
237 503 372
238 502 182
239 502 89
240 502 415
241 500 535
242 499 474
243 498 786
244 498 757
245 498 507
246 498 7
247 496 589
248 495 434
249 495 913
250 495 238
251 495 67
252 494 64
253 494 415
254 494 575
255 494 518
256 494 914
257 492 815
258 492 498
259 492 557
260 492 321
261 491 110
262 491 484
263 491 976
264 491 364
265 490 338
266 490 431
267 490 977
268 490 974
269 489 234
270 488 830
271 488 99
272 487 103
273 487 996
274 486 456
275 486 58
276 485 857
277 485 135
278 485 904
279 485 490
280 485 488
281 485 678
282 485 996
283 484 440
284 483 2
285 482 599
286 482 313
287 482 259
288 480 663
289 480 239
290 480 674
291 480 181
292 479 499
293 479 189
294 479 129
295 478 105
296 477 590
297 476 474
298 476 297
299 476 449
300 476 663
301 475 586
302 475 608
303 474 174
304 474 931
305 473 553
306 473 538
307 473 777
308 473 882
309 472 691
310 472 929
311 471 948
312 470 461
313 470 406
314 469 63
315 469 437
316 468 509
317 468 713
318 467 157
319 465 260
320 465 682
321 465 465
322 465 378
323 465 152
324 464 834
325 464 619
326 464 296
327 463 260
328 463 491
329 463 8
330 462 614
331 462 815
332 462 860
333 461 489
334 460 650
335 459 149
336 456 186
337 456 536
338 455 677
339 455 519
340 455 269
341 454 760
342 454 106
343 454 804
344 454 158
345 453 347
346 452 906
347 452 240
348 452 349
349 450 222
350 449 405
351 447 332
352 446 22
353 446 405
354 445 976
355 444 224
356 444 927
357 444 269
358 444 83
359 444 463
360 444 490
361 444 40
362 443 808
363 443 675
364 442 954
365 442 506
366 442 603
367 442 805
368 441 531
369 439 843
370 439 598
371 438 934
372 438 333
373 437 29
374 436 399
375 436 498
376 433 400
377 433 641
378 432 744
379 431 298
380 431 233
381 429 650
382 429 978
383 429 78
384 428 179
385 428 482
386 428 342
387 428 13
388 428 417
389 427 568
390 427 250
391 427 692
392 427 758
393 427 357
394 425 85
395 425 833
396 424 969
397 424 497
398 424 62
399 423 813
400 423 502
401 423 387
402 422 654
403 422 867
404 422 677
405 422 728
406 421 248
407 420 982
408 419 461
409 419 424
410 419 725
411 418 941
412 418 364
413 417 917
414 417 179
415 417 546
416 416 430
417 416 515
418 416 161
419 416 63
420 416 104
421 415 695
422 415 527
423 415 760
424 415 734
425 414 131
426 413 530
427 411 290
428 411 741
429 410 621
430 409 32
431 409 804
432 407 964
433 407 682
434 406 689
435 406 742
436 406 317
437 406 590
438 406 981
439 405 42
440 405 98
441 405 406
442 404 215
443 404 695
444 404 718
445 403 793
446 403 61
447 403 403
448 403 987
449 402 405
450 402 400
451 402 547
452 401 716
453 401 355
454 401 25
455 401 97
456 401 408
457 400 639
458 400 20
459 400 933
460 400 553
461 400 891
462 400 763
463 399 897
464 399 473
465 399 873
466 398 22
467 397 571
468 396 148
469 396 756
470 396 244
471 395 308
472 395 377
473 395 590
474 395 257
475 394 625
476 394 743
477 391 518
478 391 445
479 391 321
480 391 353
481 391 30
482 391 389
483 390 126
484 389 102
485 389 52
486 389 833
487 389 288
488 388 971
489 388 359
490 387 711
491 387 385
492 386 235
493 385 738
494 385 600
495 382 549
496 382 416
497 382 261
498 381 826
499 381 523
500 380 404
501 380 199
502 380 964
503 379 688
504 379 604
505 379 42
506 378 102
507 378 449
508 377 881
509 376 964
510 376 786
511 376 707
512 376 819
513 376 831
514 375 494
515 374 688
516 374 63
517 373 566
518 372 931
519 372 444
520 372 727
521 371 948
522 370 693
523 370 516
524 369 232
525 369 829
526 369 592
527 368 467
528 368 49
529 368 557
530 367 931
531 366 865
532 366 661
533 366 970
534 366 440
535 365 336
536 364 844
537 364 5
538 364 638
539 364 694
540 364 596
541 363 844
542 363 953
543 362 786
544 362 998
545 361 73
546 361 942
547 360 231
548 360 310
549 359 817
550 359 782
551 358 452
552 358 221
553 357 218
554 357 285
555 357 416
556 356 482
557 356 668
558 356 659
559 355 530
560 354 364
561 354 890
562 352 334
563 352 937
564 352 182
565 352 138
566 351 4
567 351 161
568 350 602
569 349 47
570 348 464
571 347 486
572 347 623
573 347 502
574 345 513
575 345 526
576 345 816
577 344 170
578 343 143
579 343 57
580 342 340
581 342 923
582 342 34
583 342 205
584 342 416
585 342 291
586 341 732
587 341 71
588 339 668
589 339 896
590 338 40
591 337 86
592 336 588
593 336 242
594 336 642
595 336 138
596 336 171
597 335 342
598 334 498
599 333 266
600 333 572
601 333 591
602 333 375
603 333 490
604 332 770
605 332 606
606 332 956
607 332 774
608 331 765
609 330 32
610 330 871
611 330 64
612 329 586
613 328 461
614 328 60
615 328 636
616 328 20
617 327 572
618 327 700
619 327 88
620 326 505
621 326 510
622 325 149
623 325 434
624 325 73
625 324 989
626 323 498
627 322 429
628 322 841
629 321 201
630 321 427
631 321 694
632 320 820
633 320 445
634 320 187
635 319 54
636 319 368
637 318 503
638 317 11
639 316 615
640 316 782
641 316 666
642 316 461
643 315 399
644 315 733
645 314 492
646 313 27
647 313 874
648 313 677
649 313 386
650 313 476
651 313 221
652 312 362
653 312 487
654 312 312
655 311 686
656 311 727
657 311 460
658 310 863
659 310 267
660 310 41
661 309 108
662 309 756
663 308 2
664 308 139
665 308 270
666 307 230
667 306 672
668 305 843
669 305 666
670 305 365
671 304 202
672 304 881
673 304 961
674 303 278
675 303 874
676 303 867
677 303 927
678 302 495
679 302 615
680 301 629
681 300 717
682 300 560
683 299 675
684 299 485
685 298 326
686 298 451
687 298 59
688 297 631
689 296 713
690 295 742
691 295 915
692 295 425
693 294 365
694 294 81
695 294 58
696 294 759
697 294 632
698 293 24
699 293 324
700 293 134
701 293 929
702 293 686
703 293 413
704 293 481
705 292 179
706 290 837
707 289 442
708 289 945
709 288 96
710 288 638
711 288 992
712 287 203
713 287 293
714 287 657
715 287 596
716 286 661
717 286 307
718 285 276
719 285 369
720 284 410
721 283 517
722 283 202
723 282 516
724 282 625
725 282 954
726 282 29
727 279 596
728 279 750
729 279 21
730 279 826
731 279 903
732 279 273
733 278 100
734 278 265
735 276 472
736 276 428
737 275 942
738 275 877
739 275 729
740 275 128
741 273 502
742 273 727
743 273 285
744 273 767
745 273 706
746 272 951
747 272 656
748 272 385
749 270 814
750 269 427
751 269 386
752 269 288
753 269 197
754 268 512
755 268 202
756 267 896
757 266 70
758 265 810
759 265 291
760 265 425
761 264 149
762 264 394
763 263 513
764 263 961
765 263 723
766 262 43
767 262 571
768 262 212
769 262 238
770 261 815
771 261 397
772 261 384
773 260 805
774 260 133
775 260 9
776 260 845
777 260 116
778 260 452
779 259 939
780 259 652
781 259 278
782 257 857
783 257 698
784 257 536
785 257 117
786 257 528
787 257 146
788 256 448
789 256 705
790 255 602
791 255 409
792 254 268
793 254 248
794 253 919
795 253 481
796 253 16
797 251 771
798 251 834
799 251 502
800 250 973
801 249 198
802 249 605
803 249 444
804 249 399
805 249 765
806 248 941
807 247 582
808 247 949
809 246 395
810 246 176
811 245 569
812 244 345
813 243 321
814 242 596
815 242 281
816 242 173
817 242 266
818 241 98
819 241 109
820 241 893
821 240 859
822 240 176
823 240 968
824 239 224
825 239 477
826 238 956
827 237 318
828 237 440
829 236 676
830 235 470
831 234 876
832 234 852
833 234 813
834 234 439
835 234 769
836 233 333
837 233 774
838 233 777
839 233 752
840 232 807
841 232 624
842 232 91
843 231 396
844 231 234
845 229 389
846 228 704
847 228 267
848 227 92
849 227 522
850 226 275
851 225 995
852 225 356
853 224 943
854 224 79
855 223 196
856 223 997
857 223 491
858 223 430
859 223 8
860 223 102
861 222 388
862 222 249
863 221 307
864 221 26
865 221 853
866 220 334
867 220 459
868 220 692
869 219 3
870 219 76
871 219 612
872 219 704
873 217 701
874 217 377
875 217 409
876 216 488
877 216 121
878 215 833
879 215 811
880 215 544
881 214 349
882 214 790
883 213 321
884 213 473
885 213 724
886 213 991
887 212 469
888 211 77
889 211 227
890 210 335
891 210 439
892 209 180
893 209 763
894 208 151
895 207 911
896 207 742
897 207 290
898 207 62
899 206 469
900 205 72
901 205 794
902 205 104
903 204 472
904 203 31
905 203 458
906 202 825
907 202 42
908 202 437
909 201 881
910 201 67
911 201 953
912 200 964
913 200 404
914 200 680
915 200 665
916 199 681
917 199 318
918 199 906
919 197 924
920 197 934
921 196 365
922 195 736
923 195 207
924 195 546
925 194 216
926 194 946
927 194 11
928 193 929
929 193 273
930 192 463
931 192 552
932 192 773
933 190 721
934 189 843
935 188 693
936 188 46
937 187 649
938 186 969
939 186 428
940 186 670
941 186 19
942 186 485
943 184 67
944 184 281
945 184 827
946 183 43
947 183 828
948 183 462
949 183 979
950 182 570
951 181 624
952 179 118
953 179 72
954 179 29
955 178 678
956 178 342
957 177 346
958 177 150
959 176 833
960 176 184
961 176 597
962 175 279
963 175 875
964 175 393
965 174 49
966 172 107
967 171 238
968 171 989
969 171 386
970 170 860
971 170 728
972 170 681
973 169 659
974 169 234
975 169 260
976 169 314
977 164 215
978 162 218
979 162 161
980 162 766
981 161 170
982 160 328
983 160 123
984 160 920
985 158 194
986 158 886
987 157 457
988 157 716
989 156 596
990 156 450
991 155 387
992 155 355
993 155 720
994 154 519
995 154 474
996 154 655
997 152 294
998 151 434
999 150 430
1000 150 145
